c Result of efficient AIG-to-CNF conversion using package CNF
p cnf 224 879
2 -3 -24 0
2 -192 -193 -24 0
2 192 193 -24 0
-2 24 0
-2 192 -193 3 0
-2 -192 193 3 0
3 -193 -194 0
3 -193 -195 -4 0
3 -194 -195 0
3 -194 -4 0
-3 194 4 0
-3 193 195 4 0
-3 194 195 0
-3 193 194 0
4 -195 -196 0
4 -195 -197 -5 0
4 -196 -197 0
4 -196 -5 0
-4 196 5 0
-4 195 197 5 0
-4 196 197 0
-4 195 196 0
5 -197 -198 0
5 -198 -6 0
5 -197 -199 -6 0
-5 198 6 0
-5 197 198 0
-5 197 6 0
-5 198 199 0
-6 199 7 0
-6 199 200 0
-6 198 200 7 0
6 -199 -200 0
6 -199 -7 0
6 -198 -199 0
6 -200 -7 0
7 -200 -201 0
7 -200 -202 -8 0
7 -201 -202 0
7 -201 -8 0
-7 201 8 0
-7 200 202 8 0
-7 201 202 0
-7 200 201 0
8 -202 -203 0
8 -202 -204 -9 0
8 -203 -204 0
8 -203 -9 0
-8 203 9 0
-8 202 204 9 0
-8 203 204 0
-8 202 203 0
9 -10 -11 0
-9 10 0
-9 11 0
-10 204 205 0
10 -204 0
10 -205 0
-11 205 12 0
-11 205 206 0
-11 204 206 12 0
11 -205 -206 0
11 -205 -12 0
11 -204 -205 0
11 -206 -12 0
12 -206 -207 0
12 -207 -13 0
12 -206 -13 0
-12 206 13 0
-12 207 13 0
-12 206 207 0
13 -207 -208 0
13 -208 -14 0
13 -207 -14 0
-13 207 14 0
-13 208 14 0
-13 207 208 0
14 -208 -209 0
14 -209 -15 0
14 -208 -15 0
-14 208 15 0
-14 209 15 0
-14 208 209 0
15 -209 -210 0
15 -209 -211 -16 0
15 -210 -211 0
15 -210 -16 0
-15 210 16 0
-15 209 211 16 0
-15 210 211 0
-15 209 210 0
16 -211 -212 0
16 -212 -17 0
16 -211 -17 0
-16 211 17 0
-16 212 17 0
-16 211 212 0
17 -212 -213 0
17 -212 -214 -18 0
17 -213 -214 0
17 -213 -18 0
-17 213 18 0
-17 212 214 18 0
-17 213 214 0
-17 212 213 0
18 -214 -215 0
18 -214 -216 -19 0
18 -215 -216 0
18 -215 -19 0
-18 215 19 0
-18 214 216 19 0
-18 215 216 0
-18 214 215 0
19 -216 -217 0
19 -217 -20 0
19 -216 -20 0
-19 216 20 0
-19 217 20 0
-19 216 217 0
20 -217 -21 0
20 -218 -21 0
-20 21 0
-20 217 218 0
-21 218 22 0
-21 218 219 0
-21 217 219 22 0
21 -218 -219 0
21 -218 -22 0
21 -217 -218 0
21 -219 -22 0
22 -219 -220 0
22 -220 -23 0
22 -219 -23 0
-22 219 23 0
-22 220 23 0
-22 219 220 0
23 -220 -221 0
23 -221 -222 0
23 -220 -222 -223 0
-23 220 222 0
-23 221 222 0
-23 221 223 0
-23 220 221 0
24 25 27 -28 0
24 -26 27 -28 0
-24 28 0
-24 -27 0
-24 -25 26 0
-25 198 199 0
25 -198 0
25 -199 0
26 197 -198 -6 0
26 -197 198 -6 0
-26 6 0
-26 197 198 0
-26 -197 -198 0
27 -204 -205 0
27 204 205 -206 0
27 204 205 -12 0
-27 204 -205 0
-27 -204 205 0
-27 204 206 12 0
28 10 29 -58 0
28 -11 29 -58 0
-28 58 0
-28 -29 0
-28 -10 11 0
-29 14 30 32 33 0
-29 -14 30 -32 33 0
29 -33 0
29 -14 32 0
29 -30 0
29 14 -32 0
-30 -13 -31 0
-30 13 31 0
30 13 -31 0
30 -13 31 0
31 206 -207 0
31 -206 207 0
-31 -206 -207 0
-31 206 207 0
32 207 -208 0
32 -207 208 0
-32 -207 -208 0
-32 207 208 0
-33 15 34 37 38 0
-33 -15 34 -37 38 0
33 -38 0
33 -15 37 0
33 -34 0
33 15 -37 0
-34 17 35 36 0
-34 -17 35 -36 0
34 -35 0
34 -17 36 0
34 17 -36 0
-35 212 -213 214 -18 0
-35 -212 213 -214 -18 0
-35 212 213 214 18 0
-35 212 -213 -214 18 0
35 -212 -213 0
35 213 214 -18 0
35 -213 214 18 0
35 -212 18 0
35 -213 -214 -18 0
35 212 213 -214 0
36 211 -212 0
36 -211 212 0
-36 -211 -212 0
-36 211 212 0
37 208 -209 0
37 -208 209 0
-37 -208 -209 0
-37 208 209 0
-38 -39 -41 43 0
-38 210 39 41 43 0
38 -39 41 0
38 39 -41 0
38 -43 0
38 -210 39 0
39 209 -40 0
-39 -209 0
-39 40 0
-40 211 17 0
-40 211 212 0
40 -211 0
40 -212 -17 0
41 -209 42 0
41 -210 42 0
-41 -42 0
-41 209 210 0
42 -211 -212 0
42 -211 -17 0
-42 211 0
-42 212 17 0
-43 44 47 50 0
-43 -45 47 50 0
43 -50 0
43 -47 0
43 -44 45 0
-44 197 198 0
44 -197 0
44 -198 0
45 197 -25 -46 0
45 196 -25 -46 0
-45 46 0
-45 25 0
-45 -196 -197 0
46 -194 195 0
46 194 -195 196 0
-46 -194 -195 0
-46 194 195 0
-46 -195 -196 0
-47 195 196 48 0
-47 194 -195 48 0
-47 -194 195 48 0
47 -48 0
47 -194 -195 0
47 194 195 -196 0
-48 198 49 0
-48 199 49 0
48 -49 0
48 -198 -199 0
49 -192 -193 0
49 192 -194 0
49 192 193 -195 0
-49 -192 193 0
-49 192 -193 194 0
-49 192 194 195 0
-50 51 52 57 0
-50 -46 52 57 0
50 -57 0
50 -52 0
50 -51 46 0
-51 196 197 0
51 -196 0
51 -197 0
-52 -54 55 0
-52 53 10 55 0
52 -55 0
52 -53 54 0
52 -10 54 0
-53 202 203 0
53 -202 0
53 -203 0
54 -200 201 0
54 200 -201 202 0
-54 -200 -201 0
-54 200 201 0
-54 -201 -202 0
-55 201 202 56 0
-55 200 -201 56 0
-55 -200 201 56 0
55 -56 0
55 -200 -201 0
55 200 201 -202 0
-56 203 0
-56 202 204 0
56 -202 -203 0
56 -203 -204 0
-57 -199 200 0
-57 -198 -200 0
-57 200 201 0
57 198 -200 0
57 199 200 -201 0
58 59 60 -69 0
58 59 60 -136 0
-58 -59 0
-58 -60 0
-58 69 136 0
59 214 215 -19 0
59 -215 -216 -19 0
59 -214 -215 0
59 214 215 -216 0
-59 214 -215 216 0
-59 215 216 19 0
-59 -214 215 0
-59 214 -215 19 0
-60 61 62 65 0
-60 -21 62 65 0
60 -65 0
60 -62 0
60 -61 21 0
-61 217 218 0
61 -217 0
61 -218 0
-62 -20 -63 64 0
-62 20 63 64 0
62 -64 0
62 -20 63 0
62 20 -63 0
63 216 -217 0
63 -216 217 0
-63 -216 -217 0
-63 216 217 0
64 -218 -219 -22 0
64 218 219 -22 0
-64 22 0
-64 -218 219 0
-64 218 -219 0
-65 -217 218 66 0
-65 217 -218 66 0
-65 217 219 66 0
65 -66 0
65 -217 -218 0
65 217 218 -219 0
66 -67 68 0
-66 67 0
-66 -68 0
67 -214 215 0
67 214 -215 216 0
-67 -214 -215 0
-67 214 215 0
-67 -215 -216 0
68 -216 -19 0
68 -215 -19 0
68 -214 -215 0
68 214 215 -216 0
-68 215 216 0
-68 214 -215 19 0
-68 -214 215 19 0
69 205 70 -72 0
69 206 70 -72 0
-69 72 0
-69 -70 0
-69 -205 -206 0
70 23 -71 0
70 -23 71 0
-70 -23 -71 0
-70 23 71 0
71 219 -220 0
71 -219 220 0
-71 -219 -220 0
-71 219 220 0
-72 73 85 100 108 0
72 -73 0
72 -108 0
72 -100 0
72 -85 0
73 74 -77 0
-73 -74 0
-73 77 0
74 75 -76 0
74 -75 76 0
-74 -75 -76 0
-74 75 76 0
-75 222 0
-75 221 223 0
75 -221 -222 0
75 -222 -223 0
76 220 -221 0
76 -220 221 0
-76 -220 -221 0
-76 220 221 0
77 78 -79 0
77 78 -82 0
-77 -78 0
-77 79 82 0
-78 221 -223 0
-78 -221 -222 223 0
-78 221 222 0
78 -221 -223 0
78 -221 222 0
78 221 -222 223 0
79 80 -81 0
79 -192 223 -80 0
-79 80 81 0
-79 192 -80 0
-79 -223 -80 0
80 222 -223 0
80 -222 223 0
-80 -222 -223 0
-80 222 223 0
81 -194 223 0
81 -193 -223 0
-81 194 223 0
-81 193 -223 0
82 80 -83 0
82 -80 -84 0
-82 -80 84 0
-82 80 83 0
83 -195 223 0
83 -194 -223 0
-83 195 223 0
-83 194 -223 0
84 -193 223 0
84 -192 -223 0
-84 193 223 0
-84 192 -223 0
85 -74 -77 0
85 74 -86 0
-85 74 86 0
-85 -74 77 0
86 78 -94 0
86 -78 -87 0
86 78 -97 0
-86 -78 87 0
-86 78 94 97 0
-87 88 91 0
87 -88 0
87 -91 0
88 80 -89 0
88 -80 -90 0
-88 -80 90 0
-88 80 89 0
89 -198 223 0
89 -197 -223 0
-89 198 223 0
-89 197 -223 0
90 -196 223 0
90 -195 -223 0
-90 196 223 0
-90 195 -223 0
91 80 -92 0
91 -80 -93 0
-91 -80 93 0
-91 80 92 0
92 -199 223 0
92 -198 -223 0
-92 199 223 0
-92 198 -223 0
93 -197 223 0
93 -196 -223 0
-93 197 223 0
-93 196 -223 0
94 80 -95 0
94 -80 -96 0
-94 -80 96 0
-94 80 95 0
95 -202 223 0
95 -201 -223 0
-95 202 223 0
-95 201 -223 0
96 -200 223 0
96 -199 -223 0
-96 200 223 0
-96 199 -223 0
97 80 -98 0
97 -80 -99 0
-97 -80 99 0
-97 80 98 0
98 -203 223 0
98 -202 -223 0
-98 203 223 0
-98 202 -223 0
99 -201 223 0
99 -200 -223 0
-99 201 223 0
-99 200 -223 0
-100 -74 101 107 0
-100 101 105 107 0
100 -107 0
100 -101 0
100 74 -105 0
101 74 -102 0
-101 -74 0
-101 102 0
102 78 -103 0
102 -78 -104 0
-102 -78 104 0
-102 78 103 0
103 -80 -81 0
103 80 -90 0
-103 80 90 0
-103 -80 81 0
104 -192 223 80 0
-104 192 0
-104 -80 0
-104 -223 0
105 78 -106 0
-105 -78 0
-105 106 0
106 -192 -223 80 0
106 -193 223 80 0
-106 -80 0
-106 193 223 0
-106 192 -223 0
107 -192 221 222 223 0
-107 -223 0
-107 -222 0
-107 192 0
-107 -221 0
-108 109 117 0
-108 -74 105 117 0
108 -117 0
108 -105 -109 0
108 74 -109 0
-109 110 116 0
109 -110 0
109 -116 0
-110 74 111 0
110 -74 0
110 -111 0
-111 78 112 0
-111 -78 103 115 0
111 -78 -103 0
111 78 -112 0
111 -78 -115 0
-112 113 114 0
112 -113 0
112 -114 0
113 -80 -92 0
113 80 -99 0
-113 80 99 0
-113 -80 92 0
114 -80 -89 0
114 80 -96 0
-114 80 96 0
-114 -80 89 0
115 -80 -83 0
115 80 -93 0
-115 80 93 0
-115 -80 83 0
116 -78 -106 0
116 78 -115 0
-116 78 115 0
-116 -78 106 0
-117 118 132 133 0
117 -118 0
117 -133 0
117 -132 0
118 -102 -119 0
118 -119 -130 0
118 74 -119 0
-118 119 0
-118 -74 102 130 0
-119 74 120 124 128 0
119 -128 0
119 -124 0
119 -74 0
119 -120 0
120 -78 -94 0
120 78 -121 0
-120 78 121 0
-120 -78 94 0
121 80 -122 0
121 -80 -123 0
-121 -80 123 0
-121 80 122 0
122 -206 223 0
122 -205 -223 0
-122 206 223 0
-122 205 -223 0
123 -204 223 0
123 -203 -223 0
-123 204 223 0
-123 203 -223 0
124 -78 -97 0
124 78 -125 0
-124 78 125 0
-124 -78 97 0
125 80 -126 0
125 -80 -127 0
-125 -80 127 0
-125 80 126 0
126 -207 223 0
126 -206 -223 0
-126 207 223 0
-126 206 -223 0
127 -205 223 0
127 -204 -223 0
-127 205 223 0
-127 204 -223 0
128 -78 -114 0
128 78 -129 0
-128 78 129 0
-128 -78 114 0
129 -80 -95 0
129 80 -123 0
-129 80 123 0
-129 -80 95 0
-130 -78 82 131 0
-130 78 91 131 0
130 -131 0
130 -78 -82 0
130 78 -91 0
131 -78 -79 0
131 78 -88 0
-131 78 88 0
-131 -78 79 0
132 74 -130 0
-132 -74 0
-132 130 0
133 -74 -116 0
133 74 -134 0
-133 74 134 0
-133 -74 116 0
134 -78 -113 0
134 78 -135 0
-134 78 135 0
-134 -78 113 0
135 -80 -98 0
135 80 -127 0
-135 80 127 0
-135 -80 98 0
136 206 -137 0
136 12 -137 0
136 205 -137 0
-136 137 0
-136 -205 -206 -12 0
-137 -70 138 163 0
-137 70 140 163 0
137 -163 0
137 -70 -138 0
137 70 -140 0
-138 -74 73 132 0
-138 73 139 132 0
138 -132 0
138 -73 0
138 74 -139 0
-139 105 107 0
139 -105 0
139 -107 0
-140 -74 159 0
-140 141 147 159 0
140 -159 0
140 74 -147 0
140 74 -141 0
-141 78 142 0
-141 -78 129 135 0
141 -78 -129 0
141 78 -142 0
141 -78 -135 0
-142 143 145 0
142 -143 0
142 -145 0
143 -80 -122 0
143 80 -144 0
-143 80 144 0
-143 -80 122 0
144 -208 223 0
144 -207 -223 0
-144 208 223 0
-144 207 -223 0
145 -80 -126 0
145 80 -146 0
-145 80 146 0
-145 -80 126 0
146 -209 223 0
146 -208 -223 0
-146 209 223 0
-146 208 -223 0
-147 -78 148 157 0
-147 78 148 154 0
147 -148 0
147 -78 -157 0
147 78 -154 0
148 78 -149 0
148 -78 -152 0
-148 -78 152 0
-148 78 149 0
149 80 -150 0
149 -80 -151 0
-149 -80 151 0
-149 80 150 0
150 -215 223 0
150 -214 -223 0
-150 215 223 0
-150 214 -223 0
151 -213 223 0
151 -212 -223 0
-151 213 223 0
-151 212 -223 0
152 -80 -146 0
152 80 -153 0
-152 80 153 0
-152 -80 146 0
153 -211 223 0
153 -210 -223 0
-153 211 223 0
-153 210 -223 0
154 80 -155 0
154 -80 -156 0
-154 -80 156 0
-154 80 155 0
155 -214 223 0
155 -213 -223 0
-155 214 223 0
-155 213 -223 0
156 -212 223 0
156 -211 -223 0
-156 212 223 0
-156 211 -223 0
157 -80 -144 0
157 80 -158 0
-157 80 158 0
-157 -80 144 0
158 -210 223 0
158 -209 -223 0
-158 210 223 0
-158 209 -223 0
159 -74 -86 0
159 74 -161 0
159 -74 -160 0
-159 74 161 0
-159 -74 86 160 0
-160 111 120 124 0
160 -111 0
160 -124 0
160 -120 0
-161 78 162 0
-161 -78 121 125 0
161 -78 -121 0
161 78 -162 0
161 -78 -125 0
-162 152 157 0
162 -152 0
162 -157 0
163 -164 -167 0
163 -166 -167 0
163 70 -167 0
-163 167 0
-163 -70 164 166 0
-164 -74 118 165 0
-164 109 118 165 0
164 -165 0
164 -118 0
164 74 -109 0
-165 101 133 0
165 -101 0
165 -133 0
-166 85 139 0
-166 85 110 0
166 -85 0
166 -139 -110 0
-167 74 173 175 0
-167 -74 168 173 0
167 -173 0
167 -74 -168 0
167 74 -175 0
-168 128 141 161 169 0
168 -128 0
168 -169 0
168 -161 0
168 -141 0
-169 134 147 170 0
-169 134 147 -172 0
169 -134 0
169 -147 0
169 -170 172 0
-170 78 171 0
170 -78 0
170 -171 0
171 80 -156 0
171 -80 -158 0
-171 -80 158 0
-171 80 156 0
172 -78 143 0
-172 78 0
-172 -143 0
-173 70 78 174 0
-173 70 -78 145 0
173 -70 0
173 78 -174 0
173 -78 -145 0
174 80 -151 0
174 -80 -153 0
-174 -80 153 0
-174 80 151 0
-175 176 185 187 0
-175 -184 185 187 0
175 -187 0
175 -185 0
175 -176 184 0
-176 80 170 177 0
-176 170 177 183 0
176 -177 0
176 -170 0
176 -80 -183 0
-177 179 -180 0
-177 220 178 179 0
177 -179 0
177 -220 180 0
177 -178 180 0
-178 222 223 0
178 -222 0
178 -223 0
-179 222 -223 0
-179 220 221 0
-179 221 222 0
-179 -222 223 0
179 -220 -222 -223 0
179 -221 222 223 0
179 -221 -222 -223 0
180 -80 181 182 0
-180 80 0
-180 -182 0
-180 -181 0
181 -221 223 0
181 -220 -223 0
-181 221 223 0
-181 220 -223 0
182 -218 223 0
182 -217 -223 0
-182 218 223 0
-182 217 -223 0
-183 218 219 -223 0
-183 219 220 223 0
183 -219 0
183 -218 -223 0
183 -220 223 0
184 149 154 171 -172 0
-184 172 0
-184 -171 0
-184 -149 0
-184 -154 0
-185 -80 155 174 0
-185 80 174 186 0
185 -174 0
185 80 -186 0
185 -80 -155 0
186 -216 223 0
186 -215 -223 0
-186 216 223 0
-186 215 -223 0
-187 80 188 189 0
-187 -80 150 189 0
187 -189 0
187 80 -188 0
187 -80 -150 0
188 -217 223 0
188 -216 -223 0
-188 217 223 0
-188 216 -223 0
-189 80 182 190 0
-189 -80 186 190 0
189 -190 0
189 80 -182 0
189 -80 -186 0
190 -80 -188 0
190 80 -191 0
-190 80 191 0
-190 -80 188 0
191 -219 223 0
191 -218 -223 0
-191 219 223 0
-191 218 -223 0
-224 0
2 0

